232 233 234 235 236 237 240 239 238 246 247 245 244 243 242 241 248 249 250 251 252 254 253 255 256 257 260 261 262 259 258 300 299 298 265 263 264 266 267 296 295 294 293 270 269 268 271 272 273 274 275 292 291 330 331 332 288 289 290 276 277 278 279 282 281 280 287 286 285 284 283 334 335 333 336 337 338 339 340 341 342 343 344 345 346 364 363 362 347 348 350 349 358 359 361 360 401 402 403 404 400 399 406 405 407 408 409 385 387 386 382 383 384 410 418 411 412 356 357 355 354 353 352 351 415 416 414 413 417 419 420 421 422 423 424 425 426 427 428 429 431 430 432 433 434 435 436 437 438 443 444 445 381 380 379 378 377 376 375 374 373 372 371 396 395 394 393 391 392 390 389 388 397 398 370 369 368 365 367 366 329 328 327 326 325 323 322 324 297 321 320 319 318 317 316 315 314 313 312 451 311 310 309 308 307 305 306 304 303 301 302 508 507 506 505 504 503 502 498 501 500 499 452 453 440 441 450 449 448 447 446 442 439 454 455 456 457 458 459 460 461 462 463 464 465 496 497 519 518 495 494 524 472 471 470 469 468 467 466 571 572 573 0 1 2 3 4 5 6 7 9 11 10 8 17 18 16 15 14 13 12 23 22 31 32 30 29 28 27 26 25 24 21 20 19 568 569 570 474 473 567 566 565 564 563 562 561 560 549 548 550 559 558 34 33 35 36 37 38 39 42 41 40 557 556 554 553 552 551 101 102 100 99 98 97 96 95 94 93 92 91 555 46 45 44 43 47 48 49 54 53 52 50 51 84 85 86 82 83 55 56 57 58 59 81 80 79 61 60 63 64 62 78 88 87 90 89 77 76 75 74 73 72 65 66 67 68 69 70 71 123 122 121 120 119 118 106 105 104 103 547 546 545 544 543 541 542 107 109 108 173 174 175 172 170 171 169 168 162 161 113 112 114 111 110 115 116 117 124 125 126 127 128 129 130 131 132 133 134 135 136 137 138 139 140 141 151 150 149 152 148 147 142 143 144 146 145 158 157 159 156 155 153 154 160 163 167 166 164 165 203 204 202 201 200 199 198 197 184 181 180 179 182 183 185 186 188 187 178 177 176 540 538 539 537 479 478 477 480 476 475 482 481 483 536 484 485 486 487 535 534 488 533 532 489 490 493 525 492 491 526 523 522 521 520 517 516 515 514 513 509 510 511 512 527 528 529 530 531 231 230 229 228 227 189 190 192 191 226 225 224 222 221 220 218 219 193 194 195 196 205 206 207 208 209 210 211 212 213 214 215 216 217 223